c random assignment satisfied 0/430 clauses
o 430
c flipped 0/100 variables (k=0)
c solution improved by 38 clauses
o 392
c flipped 0/100 variables (k=0)
c solution improved by 137 clauses
o 255
c flipped 0/100 variables (k=0)
c solution improved by 20 clauses
o 235
c flipped 0/100 variables (k=0)
c solution improved by 28 clauses
o 207
c flipped 0/100 variables (k=0)
c solution improved by 1 clause
o 206
c flipped 0/100 variables (k=0)
c solution improved by 8 clauses
o 198
c flipped 0/100 variables (k=0)
c solution improved by 28 clauses
o 170
c flipped 0/100 variables (k=0)
c solution improved by 1 clause
o 169
c flipped 0/100 variables (k=0)
c solution improved by 8 clauses
o 161
c flipped 0/100 variables (k=0)
c solution improved by 18 clauses
o 143
c flipped 0/100 variables (k=0)
c solution improved by 8 clauses
o 135
c flipped 0/100 variables (k=0)
c solution improved by 3 clauses
o 132
c flipped 0/100 variables (k=0)
c solution improved by 5 clauses
o 127
c flipped 0/100 variables (k=0)
c solution improved by 2 clauses
o 125
c flipped 0/100 variables (k=0)
c solution improved by 2 clauses
o 123
c flipped 0/100 variables (k=0)
c solution improved by 1 clause
o 122
c flipped 0/100 variables (k=0)
c solution improved by 1 clause
o 121
c flipped 0/100 variables (k=0)
c solution improved by 1 clause
o 120
c flipped 0/100 variables (k=0)
c solution improved by 1 clause
o 119
c flipped 0/100 variables (k=0)
c solution improved by 24 clauses
o 95
c flipped 0/100 variables (k=0)
c solution improved by 1 clause
o 94
c flipped 0/100 variables (k=0)
c solution improved by 1 clause
o 93
c flipped 0/100 variables (k=0)
c solution improved by 7 clauses
o 86
c flipped 0/100 variables (k=0)
c solution improved by 1 clause
o 85
c flipped 0/100 variables (k=0)
c solution improved by 1 clause
o 84
c flipped 0/100 variables (k=0)
c solution improved by 13 clauses
o 71
c flipped 0/100 variables (k=0)
c solution improved by 1 clause
o 70
c flipped 0/100 variables (k=0)
c solution improved by 1 clause
o 69
c flipped 0/100 variables (k=0)
c solution improved by 1 clause
o 68
c flipped 0/100 variables (k=0)
c solution improved by 8 clauses
o 60
c flipped 0/100 variables (k=0)
c solution improved by 1 clause
o 59
c flipped 0/100 variables (k=0)
c solution improved by 1 clause
o 58
c flipped 0/100 variables (k=0)
c solution improved by 1 clause
o 57
v 1010110010011001100010001110111001011011011101100000010000000011001100001000000101001110000011010110
c stuck at 373/430 clauses with k=0
s UNKNOWN
